s td 160 12 188
b 1 1 4 6
b 2 2 3 5
b 3 3 5 33
b 4 4 6 34
b 5 5 13 33
b 6 6 14 34
b 7 17 20 22
b 8 18 19 21
b 9 19 21 165
b 10 20 22 166
b 11 21 63 165
b 12 22 64 166
b 13 23 26 28
b 14 24 25 27
b 15 25 27 167
b 16 26 28 168
b 17 27 127 167
b 18 28 128 168
b 19 101 104 106
b 20 102 103 105
b 21 11 103 105
b 22 12 104 106
b 23 11 105 183
b 24 12 106 184
b 25 7 8 9 10 71 72 89 90 185 186 187 188
b 26 8 9 180 185 186 187 188
b 27 8 9 180 181 186 187
b 28 8 9 180 181 183
b 29 8 9 11 183
b 30 7 10 12 185 186 187 188
b 31 12 184 185 186 187 188
b 32 179 184 186 188
b 33 182 184 185 187
b 34 7 8 9 10 37 38 71 72 89 90 185 186
b 35 7 8 9 10 13 37 38 71 72
b 36 7 9 13 34 37 38 71 72
b 37 7 9 14 34
b 38 13 33 34 37 38 71 72
b 39 31 33 34 37 38 72
b 40 29 31 34 38 72
b 41 29 31 36 72
b 42 33 34 35 37 38 71
b 43 30 33 35 38
b 44 32 34 35 37
b 45 7 8 9 10 37 38 51 89 90 185 186
b 46 9 10 15 51
b 47 7 8 16 37 38 51 89 90 185 186
b 48 16 37 38 51 52 89 90 185 186
b 49 37 38 50 51 52 89 90 185 186
b 50 37 38 49 50 51 52 89 185 186
b 51 37 38 48 49 50 51 52 185 186
b 52 37 38 47 48 49 50 51 52 185
b 53 38 47 48 49 50 51 52 54
b 54 39 48 50 52 54
b 55 40 47 49 52 54
b 56 41 47 50 51 54
b 57 42 48 49 51 54
b 58 37 47 48 49 50 51 52 53
b 59 43 47 50 52 53
b 60 44 48 49 52 53
b 61 45 48 50 51 53
b 62 46 47 49 51 53
b 63 71 72 89 90 95 96 145 146 173 174 187 188
b 64 95 96 129 130 143 144 145 146 173 174 187 188
b 65 129 130 141 142 143 144 145 146 173 174 177 178
b 66 117 118 121 122 129 130 141 142 167 168 177 178
b 67 117 118 121 122 164 167 168 177 178
b 68 117 118 121 163 164 167 168 177 178
b 69 62 117 118 163 164 167 168 177 178
b 70 61 62 117 163 164 167 168 177 178
b 71 60 61 62 163 164 167 168 177 178
b 72 59 60 61 62 163 164 167 168 177
b 73 59 60 61 62 161 163 164 167 168
b 74 56 59 60 61 62 161 164 168
b 75 55 56 60 62 161 164 168
b 76 55 56 64 161 164 168
b 77 64 161 164 166 168
b 78 159 164 166 168
b 79 59 60 61 62 160 163 164 167 168
b 80 57 59 60 61 62 160 164 167
b 81 57 60 61 160 162 164 167
b 82 57 60 61 160 162 165
b 83 57 60 61 63 165
b 84 58 60 61 63
b 85 117 118 121 122 128 129 130 141 142 167 168
b 86 117 118 121 122 127 128 129 130 141 142 167
b 87 116 117 118 121 122 127 128 129 130 141 142
b 88 115 116 117 118 121 122 127 128 129 130 141
b 89 115 116 117 118 121 122 127 128 129 130 132
b 90 115 116 117 118 120 121 122 132
b 91 107 116 118 120 122
b 92 108 115 117 120 122
b 93 111 115 118 120 121
b 94 112 116 117 120 121
b 95 123 128 130 132
b 96 124 127 129 132
b 97 115 116 117 118 119 121 122 127 128 129 130
b 98 109 115 118 119 122
b 99 110 116 117 119 122
b 100 113 116 118 119 121
b 101 114 115 117 119 121
b 102 119 125 127 128 129 130
b 103 119 125 128 129 131
b 104 126 128 129 131
b 105 141 142 143 144 145 146 171 173 174 177 178
b 106 141 142 143 144 145 146 148 171 174 178
b 107 133 142 144 146 148
b 108 134 141 143 146 148
b 109 135 141 144 145 148
b 110 136 142 143 145 148
b 111 148 169 171 174 178
b 112 148 169 171 176
b 113 141 142 143 144 145 146 147 173 174 177 178
b 114 137 141 144 146 147
b 115 138 142 143 146 147
b 116 139 142 144 145 147
b 117 140 141 143 145 147
b 118 147 170 173 174 177 178
b 119 147 170 172 174 177
b 120 147 170 172 175
b 121 95 96 129 130 143 144 158 187 188
b 122 95 96 129 143 144 157 158 187 188
b 123 95 96 143 144 156 157 158 187 188
b 124 95 96 143 155 156 157 158 187 188
b 125 95 96 100 155 156 157 158 187 188
b 126 95 96 99 100 155 156 157 158 187
b 127 93 95 96 99 100 155 156 157 158
b 128 91 93 96 100 155 156 157 158
b 129 91 93 154 155 156 157 158
b 130 91 93 98 154
b 131 149 154 156 158
b 132 152 154 155 157
b 133 94 95 96 99 100 155 156 157 158
b 134 94 95 100 151 155 156 157 158
b 135 94 95 100 150 151 155 158
b 136 92 94 95 100 150 151
b 137 92 94 97 150 151
b 138 97 150 151 153
b 139 71 72 88 89 90 95 96 145 146 173 174
b 140 71 72 87 88 89 90 95 145 146 173 174
b 141 71 72 84 87 88 89 90 145 146 173 174
b 142 71 72 83 84 87 88 89 90 145 173 174
b 143 71 72 74 83 84 87 88 89 90 173 174
b 144 71 72 73 74 83 84 87 88 89 90 173
b 145 68 71 72 73 74 83 84 87 88 89 90
b 146 68 72 74 83 84 86 87 88 89 90
b 147 68 70 72 74 86
b 148 65 70 72 74
b 149 75 84 86 88 90
b 150 77 83 86 87 90
b 151 79 83 86 88 89
b 152 81 84 86 87 89
b 153 67 71 72 73 74 83 84 87 88 89 90
b 154 67 71 74 83 84 85 87 88 89 90
b 155 67 69 71 74 85
b 156 66 69 71 74
b 157 76 83 85 88 90
b 158 78 84 85 87 90
b 159 80 84 85 88 89
b 160 82 83 85 87 89
1 4
2 3
3 5
4 6
5 38
6 37
7 10
8 9
9 11
10 12
11 83
12 77
13 16
14 15
15 17
16 18
17 86
18 85
19 22
20 21
21 23
22 24
23 29
24 31
25 26
25 30
25 34
25 63
26 27
27 28
28 29
30 31
31 32
31 33
34 35
34 45
35 36
36 37
36 38
38 39
38 42
39 40
40 41
42 43
42 44
45 46
45 47
47 48
48 49
49 50
50 51
51 52
52 53
52 58
53 54
53 55
53 56
53 57
58 59
58 60
58 61
58 62
63 64
63 139
64 65
64 121
65 66
65 105
65 113
66 67
66 85
67 68
68 69
69 70
70 71
71 72
72 73
72 79
73 74
74 75
75 76
76 77
77 78
79 80
80 81
81 82
82 83
83 84
85 86
86 87
87 88
88 89
88 97
89 90
89 95
89 96
90 91
90 92
90 93
90 94
97 98
97 99
97 100
97 101
97 102
102 103
103 104
105 106
106 107
106 108
106 109
106 110
106 111
111 112
113 114
113 115
113 116
113 117
113 118
118 119
119 120
121 122
122 123
123 124
124 125
125 126
126 127
126 133
127 128
128 129
129 130
129 131
129 132
133 134
134 135
135 136
136 137
137 138
139 140
140 141
141 142
142 143
143 144
144 145
144 153
145 146
146 147
146 149
146 150
146 151
146 152
147 148
153 154
154 155
154 157
154 158
154 159
154 160
155 156
